c Generated map
c Size: 8 * 8, weights in range: 1 to 10, walls: True, with ratio 0.1
c dim 1 of 10
c
p sp 64 89
c graph contains 64 nodes and 89 arcs
c
a 1 9 8
a 9 1 8
a 1 2 7
a 2 1 7
a 2 3 9
a 3 2 9
a 3 11 1
a 11 3 1
a 3 4 5
a 4 3 5
a 4 12 10
a 12 4 10
a 4 5 3
a 5 4 3
a 5 13 4
a 13 5 4
a 5 6 1
a 6 5 1
a 6 14 1
a 14 6 1
a 6 7 4
a 7 6 4
a 7 15 9
a 15 7 9
a 7 8 3
a 8 7 3
a 8 16 7
a 16 8 7
a 9 17 5
a 17 9 5
a 11 19 8
a 19 11 8
a 11 12 10
a 12 11 10
a 12 20 7
a 20 12 7
a 12 13 5
a 13 12 5
a 13 21 1
a 21 13 1
a 13 14 3
a 14 13 3
a 14 22 4
a 22 14 4
a 14 15 8
a 15 14 8
a 15 23 2
a 23 15 2
a 15 16 10
a 16 15 10
a 16 24 2
a 24 16 2
a 17 25 7
a 25 17 7
a 17 18 10
a 18 17 10
a 18 19 10
a 19 18 10
a 19 27 9
a 27 19 9
a 19 20 3
a 20 19 3
a 20 21 6
a 21 20 6
a 21 29 8
a 29 21 8
a 21 22 6
a 22 21 6
a 22 30 5
a 30 22 5
a 22 23 10
a 23 22 10
a 23 31 4
a 31 23 4
a 23 24 1
a 24 23 1
a 24 32 8
a 32 24 8
a 25 33 4
a 33 25 4
a 27 35 7
a 35 27 7
a 29 37 9
a 37 29 9
a 29 30 5
a 30 29 5
a 30 31 4
a 31 30 4
a 31 39 8
a 39 31 8
a 31 32 4
a 32 31 4
a 32 40 5
a 40 32 5
a 33 41 1
a 41 33 1
a 33 34 2
a 34 33 2
a 34 42 5
a 42 34 5
a 34 35 9
a 35 34 9
a 35 36 4
a 36 35 4
a 36 44 3
a 44 36 3
a 36 37 6
a 37 36 6
a 37 45 4
a 45 37 4
a 39 47 10
a 47 39 10
a 39 40 10
a 40 39 10
a 40 48 2
a 48 40 2
a 41 42 8
a 42 41 8
a 42 50 8
a 50 42 8
a 44 52 8
a 52 44 8
a 44 45 9
a 45 44 9
a 45 53 8
a 53 45 8
a 45 46 2
a 46 45 2
a 46 54 10
a 54 46 10
a 46 47 10
a 47 46 10
a 47 55 3
a 55 47 3
a 47 48 1
a 48 47 1
a 48 56 2
a 56 48 2
a 50 58 9
a 58 50 9
a 50 51 6
a 51 50 6
a 51 59 6
a 59 51 6
a 51 52 7
a 52 51 7
a 52 60 2
a 60 52 2
a 52 53 5
a 53 52 5
a 53 61 3
a 61 53 3
a 53 54 10
a 54 53 10
a 54 62 6
a 62 54 6
a 54 55 5
a 55 54 5
a 55 63 5
a 63 55 5
a 55 56 5
a 56 55 5
a 56 64 1
a 64 56 1
a 57 58 8
a 58 57 8
a 58 59 8
a 59 58 8
a 59 60 2
a 60 59 2
a 60 61 10
a 61 60 10
a 61 62 1
a 62 61 1
a 62 63 1
a 63 62 1
a 63 64 6
a 64 63 6
